NAME : random103.781.tour
COMMENT : Length = 781
COMMENT : Found by LKH [Keld Helsgaun] Tue Sep  3 16:33:52 2024
TYPE : TOUR
DIMENSION : 103
TOUR_SECTION
1
55
52
16
47
5
34
103
27
44
35
66
81
38
80
78
14
74
88
95
102
84
62
19
43
89
2
51
69
56
37
33
76
6
77
10
59
23
72
64
70
100
96
86
12
46
60
71
26
92
18
9
28
73
90
65
3
85
45
25
40
22
7
39
13
11
82
4
68
75
36
61
49
57
63
53
41
42
98
48
54
30
101
83
97
87
67
50
29
21
79
32
8
20
24
31
15
93
99
17
94
58
91
-1
EOF
